Traveling Salesman Problem/TSP_generados/Aleatorio1620391090_13.tsp
NAME: Aleatorio1620391090_13.tsp
COMMENT: Randomly generated scenario
TYPE: TSP
DIMENSION: 13
EDGE_WEIGHT_TYPE: ATT
NODE_COORD_SECTION
1 6.16 24.52
2 48.08 48.64
3 43.33 13.06
4 47.28 11.62
5 32.1 41.01
6 44.42 16.86
7 23.51 38.87
8 27.76 31.24
9 34.27 10.2
10 7.69 2.03
11 19.78 30.76
12 46.66 27.69
13 10.56 31.4
