Traveling Salesman Problem/TSP_generados/Aleatorio1620391090_13.opt.tour
NAME: Aleatorio1620391090_13.opt.tour
COMMENT: Optimal solution for Aleatorio1620391090_13 (162.77899581455785)
TYPE: TOUR
DIMENSION: 13
TOUR_SECTION
1 10 9 3 4 6 12 2 5 7 8 11 13
-1
EOF
